sequenceInt
243
734
405
477
57
343
259
390
508
42
298
773
699
97
252
486
626
115
203
747
750
504
619
546
406
60
375
479
228
656
368
540
398
297
162
655
353
623
672
374
257
756
145
355
206
277
538
545
629
458
77
708
192
568
526
150
497
167
685
312
671
82
1
306
433
426
177
315
25
37
63
85
96
130
166
168
185
216
279
328
363
367
370
385
407
451
500
501
509
518
521
581
607
618
647
677
720
760
763
764
767
780
